db/data/115102956389361598414536256332406913912.z3.out
sat
-------------------
92.170106440
